NAME : R210.9005.tour
COMMENT : Cost = 0_9005
COMMENT : Found by LKH [Keld Helsgaun] Sat Apr 22 15:12:55 2017
TYPE : TOUR
DIMENSION : 106
TOUR_SECTION
1
19
84
46
62
17
87
45
39
15
44
58
3
42
23
75
57
5
56
26
55
27
104
96
93
43
16
24
68
40
76
73
74
22
41
54
103
53
8
83
49
48
37
20
89
63
12
64
65
50
47
9
85
18
86
99
38
101
92
94
6
61
90
105
28
70
2
31
52
34
72
66
67
21
33
91
11
71
32
106
29
13
77
4
80
30
79
82
10
36
35
25
81
69
78
51
102
7
95
97
100
60
88
98
14
59
-1
EOF
